<?xml version = "1.0" encoding="UTF-8" standalone="yes"?>
<CPLEXSolution version="1.2">
 <header
   problemName="ilog.cplex"
   objectiveValue="0"
   solutionTypeValue="1"
   solutionTypeString="basic"
   solutionStatusValue="1"
   solutionStatusString="optimal"
   solutionMethodString="dual"
   primalFeasible="1"
   dualFeasible="1"
   simplexIterations="0"
   writeLevel="1"/>
 <quality
   epRHS="1e-06"
   epOpt="1e-06"
   maxPrimalInfeas="0"
   maxDualInfeas="0"
   maxPrimalResidual="0"
   maxDualResidual="0"
   maxX="335"
   maxPi="0"
   maxSlack="0"
   maxRedCost="0"
   kappa="9"/>
 <linearConstraints>
  <constraint index="0" status="LL" slack="0" dual="0"/>
  <constraint index="1" status="LL" slack="0" dual="0"/>
  <constraint index="2" status="LL" slack="0" dual="0"/>
  <constraint index="3" status="BS" slack="0" dual="0"/>
  <constraint index="4" status="BS" slack="0" dual="0"/>
  <constraint index="5" status="BS" slack="0" dual="0"/>
  <constraint index="6" status="BS" slack="0" dual="0"/>
  <constraint index="7" status="BS" slack="0" dual="0"/>
  <constraint index="8" status="BS" slack="0" dual="0"/>
  <constraint index="9" status="BS" slack="0" dual="0"/>
  <constraint index="10" status="BS" slack="0" dual="0"/>
  <constraint index="11" status="BS" slack="0" dual="0"/>
  <constraint index="12" status="LL" slack="0" dual="-0"/>
  <constraint index="13" status="LL" slack="0" dual="-0"/>
  <constraint index="14" status="LL" slack="0" dual="-0"/>
  <constraint index="15" status="BS" slack="0" dual="0"/>
  <constraint index="16" status="BS" slack="0" dual="0"/>
  <constraint index="17" status="BS" slack="0" dual="0"/>
  <constraint index="18" status="BS" slack="0" dual="0"/>
  <constraint index="19" status="BS" slack="0" dual="0"/>
  <constraint index="20" status="BS" slack="0" dual="0"/>
  <constraint index="21" status="BS" slack="0" dual="0"/>
  <constraint index="22" status="BS" slack="0" dual="0"/>
  <constraint index="23" status="BS" slack="0" dual="0"/>
  <constraint index="24" status="LL" slack="0" dual="-0"/>
  <constraint index="25" status="LL" slack="0" dual="-0"/>
  <constraint index="26" status="LL" slack="0" dual="-0"/>
  <constraint index="27" status="LL" slack="0" dual="-0"/>
  <constraint index="28" status="LL" slack="0" dual="-0"/>
  <constraint index="29" status="LL" slack="0" dual="-0"/>
  <constraint index="30" status="LL" slack="0" dual="-0"/>
  <constraint index="31" status="LL" slack="0" dual="-0"/>
  <constraint index="32" status="LL" slack="0" dual="-0"/>
  <constraint index="33" status="LL" slack="0" dual="-0"/>
  <constraint index="34" status="LL" slack="0" dual="-0"/>
  <constraint index="35" status="LL" slack="0" dual="-0"/>
  <constraint index="36" status="LL" slack="0" dual="-0"/>
  <constraint index="37" status="LL" slack="0" dual="-0"/>
  <constraint index="38" status="LL" slack="0" dual="-0"/>
  <constraint index="39" status="LL" slack="0" dual="-0"/>
  <constraint index="40" status="LL" slack="0" dual="-0"/>
  <constraint index="41" status="LL" slack="0" dual="-0"/>
  <constraint index="42" status="LL" slack="0" dual="-0"/>
  <constraint index="43" status="LL" slack="0" dual="0"/>
  <constraint index="44" status="LL" slack="0" dual="-0"/>
  <constraint index="45" status="LL" slack="0" dual="-0"/>
  <constraint index="46" status="LL" slack="0" dual="-0"/>
  <constraint index="47" status="LL" slack="0" dual="-0"/>
  <constraint index="48" status="LL" slack="0" dual="-0"/>
  <constraint index="49" status="LL" slack="0" dual="-0"/>
  <constraint index="50" status="LL" slack="0" dual="-0"/>
  <constraint index="51" status="LL" slack="0" dual="-0"/>
  <constraint index="52" status="LL" slack="0" dual="-0"/>
  <constraint index="53" status="LL" slack="0" dual="-0"/>
  <constraint index="54" status="LL" slack="0" dual="-0"/>
  <constraint index="55" status="LL" slack="0" dual="-0"/>
  <constraint index="56" status="LL" slack="0" dual="-0"/>
  <constraint index="57" status="LL" slack="0" dual="-0"/>
  <constraint index="58" status="LL" slack="0" dual="0"/>
  <constraint index="59" status="LL" slack="0" dual="-0"/>
  <constraint index="60" status="LL" slack="0" dual="-0"/>
  <constraint index="61" status="LL" slack="0" dual="0"/>
  <constraint index="62" status="LL" slack="0" dual="-0"/>
  <constraint index="63" status="LL" slack="0" dual="-0"/>
  <constraint index="64" status="LL" slack="0" dual="-0"/>
  <constraint index="65" status="LL" slack="0" dual="-0"/>
  <constraint index="66" status="LL" slack="0" dual="-0"/>
  <constraint index="67" status="LL" slack="0" dual="-0"/>
  <constraint index="68" status="LL" slack="0" dual="-0"/>
  <constraint index="69" status="LL" slack="0" dual="-0"/>
  <constraint index="70" status="LL" slack="0" dual="-0"/>
  <constraint index="71" status="LL" slack="0" dual="-0"/>
  <constraint index="72" status="BS" slack="0" dual="0"/>
 </linearConstraints>
 <variables>
  <variable name="z(0)" index="0" status="LL" value="0" reducedCost="0"/>
  <variable name="x(0,1,0,0,3,0)(0)" index="1" status="LL" value="0" reducedCost="0"/>
  <variable name="x(0,1,0,0,3,0)(1)" index="2" status="LL" value="0" reducedCost="0"/>
  <variable name="x(0,1,0,0,3,0)(2)" index="3" status="LL" value="0" reducedCost="0"/>
  <variable name="x(0,1,0,0,3,0)(3)" index="4" status="BS" value="100" reducedCost="0"/>
  <variable name="x(0,1,0,2,2,0)(0)" index="5" status="LL" value="0" reducedCost="0"/>
  <variable name="x(0,1,0,2,2,0)(1)" index="6" status="LL" value="0" reducedCost="0"/>
  <variable name="x(0,1,0,2,2,0)(2)" index="7" status="LL" value="0" reducedCost="0"/>
  <variable name="x(0,1,0,2,2,0)(3)" index="8" status="BS" value="107" reducedCost="0"/>
  <variable name="x(0,1,0,2,5,3)(0)" index="9" status="LL" value="0" reducedCost="0"/>
  <variable name="x(0,1,0,2,5,3)(1)" index="10" status="LL" value="0" reducedCost="0"/>
  <variable name="x(0,1,0,2,5,3)(2)" index="11" status="LL" value="0" reducedCost="0"/>
  <variable name="x(0,1,0,2,5,3)(3)" index="12" status="BS" value="335" reducedCost="0"/>
  <variable name="xNG(0,1,0,0,3,0)" index="13" status="LL" value="0" reducedCost="0"/>
  <variable name="xNG(0,1,0,2,2,0)" index="14" status="LL" value="0" reducedCost="0"/>
  <variable name="xNG(0,1,0,2,5,3)" index="15" status="LL" value="0" reducedCost="0"/>
  <variable name="xPB(0,1,0,0,3,0)(0)" index="16" status="LL" value="0" reducedCost="0"/>
  <variable name="xPB(0,1,0,0,3,0)(1)" index="17" status="LL" value="0" reducedCost="0"/>
  <variable name="xPB(0,1,0,0,3,0)(2)" index="18" status="LL" value="0" reducedCost="0"/>
  <variable name="xPB(0,1,0,0,3,0)(3)" index="19" status="LL" value="0" reducedCost="0"/>
  <variable name="xPB(0,1,0,0,3,0)(4)" index="20" status="LL" value="0" reducedCost="0"/>
  <variable name="xPB(0,1,0,2,2,0)(0)" index="21" status="LL" value="0" reducedCost="0"/>
  <variable name="xPB(0,1,0,2,2,0)(1)" index="22" status="LL" value="0" reducedCost="0"/>
  <variable name="xPB(0,1,0,2,2,0)(2)" index="23" status="LL" value="0" reducedCost="0"/>
  <variable name="xPB(0,1,0,2,2,0)(3)" index="24" status="LL" value="0" reducedCost="0"/>
  <variable name="xPB(0,1,0,2,2,0)(4)" index="25" status="LL" value="0" reducedCost="0"/>
  <variable name="xPB(0,1,0,2,5,3)(0)" index="26" status="LL" value="0" reducedCost="0"/>
  <variable name="xPB(0,1,0,2,5,3)(1)" index="27" status="LL" value="0" reducedCost="0"/>
  <variable name="xPB(0,1,0,2,5,3)(2)" index="28" status="LL" value="0" reducedCost="0"/>
  <variable name="xPB(0,1,0,2,5,3)(3)" index="29" status="LL" value="0" reducedCost="0"/>
  <variable name="xPB(0,1,0,2,5,3)(4)" index="30" status="LL" value="0" reducedCost="0"/>
  <variable name="xGS(0,1,0,0,3,0)(0)" index="31" status="LL" value="0" reducedCost="0"/>
  <variable name="xGS(0,1,0,0,3,0)(1)" index="32" status="LL" value="0" reducedCost="0"/>
  <variable name="xGS(0,1,0,0,3,0)(2)" index="33" status="LL" value="0" reducedCost="0"/>
  <variable name="xGS(0,1,0,0,3,0)(3)" index="34" status="LL" value="0" reducedCost="0"/>
  <variable name="xGS(0,1,0,0,3,0)(4)" index="35" status="LL" value="0" reducedCost="0"/>
  <variable name="xGS(0,1,0,2,2,0)(0)" index="36" status="LL" value="0" reducedCost="0"/>
  <variable name="xGS(0,1,0,2,2,0)(1)" index="37" status="LL" value="0" reducedCost="0"/>
  <variable name="xGS(0,1,0,2,2,0)(2)" index="38" status="LL" value="0" reducedCost="0"/>
  <variable name="xGS(0,1,0,2,2,0)(3)" index="39" status="LL" value="0" reducedCost="0"/>
  <variable name="xGS(0,1,0,2,2,0)(4)" index="40" status="LL" value="0" reducedCost="0"/>
  <variable name="xGS(0,1,0,2,5,3)(0)" index="41" status="LL" value="0" reducedCost="0"/>
  <variable name="xGS(0,1,0,2,5,3)(1)" index="42" status="LL" value="0" reducedCost="0"/>
  <variable name="xGS(0,1,0,2,5,3)(2)" index="43" status="LL" value="0" reducedCost="0"/>
  <variable name="xGS(0,1,0,2,5,3)(3)" index="44" status="LL" value="0" reducedCost="0"/>
  <variable name="xGS(0,1,0,2,5,3)(4)" index="45" status="LL" value="0" reducedCost="0"/>
  <variable name="xEAe(0,1,0,0,3,0)(1)" index="46" status="LL" value="0" reducedCost="0"/>
  <variable name="xEAe(0,1,0,0,3,0)(2)" index="47" status="LL" value="0" reducedCost="0"/>
  <variable name="xEAe(0,1,0,0,3,0)(3)" index="48" status="LL" value="0" reducedCost="0"/>
  <variable name="xEAe(0,1,0,2,2,0)(1)" index="49" status="LL" value="0" reducedCost="0"/>
  <variable name="xEAe(0,1,0,2,2,0)(2)" index="50" status="LL" value="0" reducedCost="0"/>
  <variable name="xEAe(0,1,0,2,2,0)(3)" index="51" status="LL" value="0" reducedCost="0"/>
  <variable name="xEAe(0,1,0,2,5,3)(1)" index="52" status="LL" value="0" reducedCost="0"/>
  <variable name="xEAe(0,1,0,2,5,3)(2)" index="53" status="LL" value="0" reducedCost="0"/>
  <variable name="xEAe(0,1,0,2,5,3)(3)" index="54" status="LL" value="0" reducedCost="0"/>
  <variable name="xEAe&apos;(0,1,0,0,3,0)(1)(3)" index="55" status="BS" value="0" reducedCost="0"/>
  <variable name="xEAe&apos;(0,1,0,0,3,0)(2)(3)" index="56" status="BS" value="100" reducedCost="0"/>
  <variable name="xEAe&apos;(0,1,0,0,3,0)(3)(3)" index="57" status="LL" value="0" reducedCost="0"/>
  <variable name="xEAe&apos;(0,1,0,2,2,0)(1)(2)" index="58" status="BS" value="0" reducedCost="0"/>
  <variable name="xEAe&apos;(0,1,0,2,2,0)(2)(2)" index="59" status="BS" value="107" reducedCost="0"/>
  <variable name="xEAe&apos;(0,1,0,2,2,0)(3)(2)" index="60" status="LL" value="0" reducedCost="0"/>
  <variable name="xEAe&apos;(0,1,0,2,5,3)(1)(5)" index="61" status="BS" value="0" reducedCost="0"/>
  <variable name="xEAe&apos;(0,1,0,2,5,3)(2)(5)" index="62" status="BS" value="335" reducedCost="0"/>
  <variable name="xEAe&apos;(0,1,0,2,5,3)(3)(5)" index="63" status="LL" value="0" reducedCost="0"/>
  <variable name="xEAr(0,1,0,0,0)(2)(1)" index="64" status="LL" value="0" reducedCost="0"/>
  <variable name="xEAr(0,1,0,0,0)(3)(1)" index="65" status="BS" value="-0" reducedCost="0"/>
  <variable name="xEAr(0,1,0,0,0)(3)(2)" index="66" status="BS" value="-0" reducedCost="0"/>
  <variable name="xEAr(0,1,0,0,1)(2)(1)" index="67" status="LL" value="0" reducedCost="0"/>
  <variable name="xEAr(0,1,0,0,1)(3)(1)" index="68" status="BS" value="-0" reducedCost="0"/>
  <variable name="xEAr(0,1,0,0,1)(3)(2)" index="69" status="BS" value="-0" reducedCost="0"/>
  <variable name="xEAr(0,1,0,0,2)(2)(1)" index="70" status="LL" value="0" reducedCost="0"/>
  <variable name="xEAr(0,1,0,0,2)(3)(1)" index="71" status="BS" value="-0" reducedCost="0"/>
  <variable name="xEAr(0,1,0,0,2)(3)(2)" index="72" status="BS" value="-0" reducedCost="0"/>
  <variable name="xEAr(0,1,0,0,3)(2)(1)" index="73" status="LL" value="0" reducedCost="0"/>
  <variable name="xEAr(0,1,0,0,3)(3)(1)" index="74" status="BS" value="100" reducedCost="0"/>
  <variable name="xEAr(0,1,0,0,3)(3)(2)" index="75" status="BS" value="-0" reducedCost="0"/>
  <variable name="xEAr(0,1,0,0,4)(2)(1)" index="76" status="LL" value="0" reducedCost="0"/>
  <variable name="xEAr(0,1,0,0,4)(3)(1)" index="77" status="BS" value="-0" reducedCost="0"/>
  <variable name="xEAr(0,1,0,0,4)(3)(2)" index="78" status="BS" value="-0" reducedCost="0"/>
  <variable name="xEAr(0,1,0,0,5)(2)(1)" index="79" status="LL" value="0" reducedCost="0"/>
  <variable name="xEAr(0,1,0,0,5)(3)(1)" index="80" status="BS" value="-0" reducedCost="0"/>
  <variable name="xEAr(0,1,0,0,5)(3)(2)" index="81" status="BS" value="-0" reducedCost="0"/>
  <variable name="xEAr(0,1,0,0,6)(2)(1)" index="82" status="LL" value="0" reducedCost="0"/>
  <variable name="xEAr(0,1,0,0,6)(3)(1)" index="83" status="BS" value="-0" reducedCost="0"/>
  <variable name="xEAr(0,1,0,0,6)(3)(2)" index="84" status="BS" value="-0" reducedCost="0"/>
  <variable name="xEAr(0,1,0,0,7)(2)(1)" index="85" status="LL" value="0" reducedCost="0"/>
  <variable name="xEAr(0,1,0,0,7)(3)(1)" index="86" status="BS" value="-0" reducedCost="0"/>
  <variable name="xEAr(0,1,0,0,7)(3)(2)" index="87" status="BS" value="-0" reducedCost="0"/>
  <variable name="xEAr(0,1,0,2,0)(2)(1)" index="88" status="LL" value="0" reducedCost="0"/>
  <variable name="xEAr(0,1,0,2,0)(3)(1)" index="89" status="BS" value="-0" reducedCost="0"/>
  <variable name="xEAr(0,1,0,2,0)(3)(2)" index="90" status="BS" value="-0" reducedCost="0"/>
  <variable name="xEAr(0,1,0,2,1)(2)(1)" index="91" status="LL" value="0" reducedCost="0"/>
  <variable name="xEAr(0,1,0,2,1)(3)(1)" index="92" status="BS" value="-0" reducedCost="0"/>
  <variable name="xEAr(0,1,0,2,1)(3)(2)" index="93" status="BS" value="-0" reducedCost="0"/>
  <variable name="xEAr(0,1,0,2,2)(2)(1)" index="94" status="LL" value="0" reducedCost="0"/>
  <variable name="xEAr(0,1,0,2,2)(3)(1)" index="95" status="BS" value="107" reducedCost="0"/>
  <variable name="xEAr(0,1,0,2,2)(3)(2)" index="96" status="BS" value="-0" reducedCost="0"/>
  <variable name="xEAr(0,1,0,2,3)(2)(1)" index="97" status="LL" value="0" reducedCost="0"/>
  <variable name="xEAr(0,1,0,2,3)(3)(1)" index="98" status="BS" value="-0" reducedCost="0"/>
  <variable name="xEAr(0,1,0,2,3)(3)(2)" index="99" status="BS" value="-0" reducedCost="0"/>
  <variable name="xEAr(0,1,0,2,4)(2)(1)" index="100" status="LL" value="0" reducedCost="0"/>
  <variable name="xEAr(0,1,0,2,4)(3)(1)" index="101" status="BS" value="-0" reducedCost="0"/>
  <variable name="xEAr(0,1,0,2,4)(3)(2)" index="102" status="BS" value="-0" reducedCost="0"/>
  <variable name="xEAr(0,1,0,2,5)(2)(1)" index="103" status="LL" value="0" reducedCost="0"/>
  <variable name="xEAr(0,1,0,2,5)(3)(1)" index="104" status="BS" value="335" reducedCost="0"/>
  <variable name="xEAr(0,1,0,2,5)(3)(2)" index="105" status="BS" value="-0" reducedCost="0"/>
  <variable name="xEAr(0,1,0,2,6)(2)(1)" index="106" status="LL" value="0" reducedCost="0"/>
  <variable name="xEAr(0,1,0,2,6)(3)(1)" index="107" status="BS" value="-0" reducedCost="0"/>
  <variable name="xEAr(0,1,0,2,6)(3)(2)" index="108" status="BS" value="-0" reducedCost="0"/>
  <variable name="xEAr(0,1,0,2,7)(2)(1)" index="109" status="LL" value="0" reducedCost="0"/>
  <variable name="xEAr(0,1,0,2,7)(3)(1)" index="110" status="BS" value="-0" reducedCost="0"/>
  <variable name="xEAr(0,1,0,2,7)(3)(2)" index="111" status="BS" value="-0" reducedCost="0"/>
  <variable name="xEAr&apos;(0,1,0,0,0)(2)(1)(0)" index="112" status="LL" value="0" reducedCost="0"/>
  <variable name="xEAr&apos;(0,1,0,0,0)(3)(1)(0)" index="113" status="LL" value="0" reducedCost="0"/>
  <variable name="xEAr&apos;(0,1,0,0,0)(3)(2)(0)" index="114" status="BS" value="-0" reducedCost="0"/>
  <variable name="xEAr&apos;(0,1,0,0,1)(2)(1)(1)" index="115" status="LL" value="0" reducedCost="0"/>
  <variable name="xEAr&apos;(0,1,0,0,1)(3)(1)(1)" index="116" status="LL" value="0" reducedCost="0"/>
  <variable name="xEAr&apos;(0,1,0,0,1)(3)(2)(1)" index="117" status="BS" value="-0" reducedCost="0"/>
  <variable name="xEAr&apos;(0,1,0,0,2)(2)(1)(2)" index="118" status="LL" value="0" reducedCost="0"/>
  <variable name="xEAr&apos;(0,1,0,0,2)(3)(1)(2)" index="119" status="LL" value="0" reducedCost="0"/>
  <variable name="xEAr&apos;(0,1,0,0,2)(3)(2)(2)" index="120" status="BS" value="-0" reducedCost="0"/>
  <variable name="xEAr&apos;(0,1,0,0,3)(2)(1)(3)" index="121" status="LL" value="0" reducedCost="0"/>
  <variable name="xEAr&apos;(0,1,0,0,3)(3)(1)(3)" index="122" status="LL" value="0" reducedCost="0"/>
  <variable name="xEAr&apos;(0,1,0,0,3)(3)(2)(3)" index="123" status="LL" value="0" reducedCost="0"/>
  <variable name="xEAr&apos;(0,1,0,0,4)(2)(1)(4)" index="124" status="LL" value="0" reducedCost="0"/>
  <variable name="xEAr&apos;(0,1,0,0,4)(3)(1)(4)" index="125" status="LL" value="0" reducedCost="0"/>
  <variable name="xEAr&apos;(0,1,0,0,4)(3)(2)(4)" index="126" status="BS" value="-0" reducedCost="0"/>
  <variable name="xEAr&apos;(0,1,0,0,5)(2)(1)(5)" index="127" status="LL" value="0" reducedCost="0"/>
  <variable name="xEAr&apos;(0,1,0,0,5)(3)(1)(5)" index="128" status="LL" value="0" reducedCost="0"/>
  <variable name="xEAr&apos;(0,1,0,0,5)(3)(2)(5)" index="129" status="BS" value="-0" reducedCost="0"/>
  <variable name="xEAr&apos;(0,1,0,0,6)(2)(1)(6)" index="130" status="LL" value="0" reducedCost="0"/>
  <variable name="xEAr&apos;(0,1,0,0,6)(3)(1)(6)" index="131" status="LL" value="0" reducedCost="0"/>
  <variable name="xEAr&apos;(0,1,0,0,6)(3)(2)(6)" index="132" status="BS" value="-0" reducedCost="0"/>
  <variable name="xEAr&apos;(0,1,0,0,7)(2)(1)(7)" index="133" status="LL" value="0" reducedCost="0"/>
  <variable name="xEAr&apos;(0,1,0,0,7)(3)(1)(7)" index="134" status="LL" value="0" reducedCost="0"/>
  <variable name="xEAr&apos;(0,1,0,0,7)(3)(2)(7)" index="135" status="BS" value="-0" reducedCost="0"/>
  <variable name="xEAr&apos;(0,1,0,2,0)(2)(1)(0)" index="136" status="LL" value="0" reducedCost="0"/>
  <variable name="xEAr&apos;(0,1,0,2,0)(3)(1)(0)" index="137" status="LL" value="0" reducedCost="0"/>
  <variable name="xEAr&apos;(0,1,0,2,0)(3)(2)(0)" index="138" status="BS" value="-0" reducedCost="0"/>
  <variable name="xEAr&apos;(0,1,0,2,1)(2)(1)(1)" index="139" status="LL" value="0" reducedCost="0"/>
  <variable name="xEAr&apos;(0,1,0,2,1)(3)(1)(1)" index="140" status="LL" value="0" reducedCost="0"/>
  <variable name="xEAr&apos;(0,1,0,2,1)(3)(2)(1)" index="141" status="BS" value="-0" reducedCost="0"/>
  <variable name="xEAr&apos;(0,1,0,2,2)(2)(1)(2)" index="142" status="LL" value="0" reducedCost="0"/>
  <variable name="xEAr&apos;(0,1,0,2,2)(3)(1)(2)" index="143" status="LL" value="0" reducedCost="0"/>
  <variable name="xEAr&apos;(0,1,0,2,2)(3)(2)(2)" index="144" status="LL" value="0" reducedCost="0"/>
  <variable name="xEAr&apos;(0,1,0,2,3)(2)(1)(3)" index="145" status="LL" value="0" reducedCost="0"/>
  <variable name="xEAr&apos;(0,1,0,2,3)(3)(1)(3)" index="146" status="LL" value="0" reducedCost="0"/>
  <variable name="xEAr&apos;(0,1,0,2,3)(3)(2)(3)" index="147" status="BS" value="-0" reducedCost="0"/>
  <variable name="xEAr&apos;(0,1,0,2,4)(2)(1)(4)" index="148" status="LL" value="0" reducedCost="0"/>
  <variable name="xEAr&apos;(0,1,0,2,4)(3)(1)(4)" index="149" status="LL" value="0" reducedCost="0"/>
  <variable name="xEAr&apos;(0,1,0,2,4)(3)(2)(4)" index="150" status="BS" value="-0" reducedCost="0"/>
  <variable name="xEAr&apos;(0,1,0,2,5)(2)(1)(5)" index="151" status="LL" value="0" reducedCost="0"/>
  <variable name="xEAr&apos;(0,1,0,2,5)(3)(1)(5)" index="152" status="LL" value="0" reducedCost="0"/>
  <variable name="xEAr&apos;(0,1,0,2,5)(3)(2)(5)" index="153" status="LL" value="0" reducedCost="0"/>
  <variable name="xEAr&apos;(0,1,0,2,6)(2)(1)(6)" index="154" status="LL" value="0" reducedCost="0"/>
  <variable name="xEAr&apos;(0,1,0,2,6)(3)(1)(6)" index="155" status="LL" value="0" reducedCost="0"/>
  <variable name="xEAr&apos;(0,1,0,2,6)(3)(2)(6)" index="156" status="BS" value="-0" reducedCost="0"/>
  <variable name="xEAr&apos;(0,1,0,2,7)(2)(1)(7)" index="157" status="LL" value="0" reducedCost="0"/>
  <variable name="xEAr&apos;(0,1,0,2,7)(3)(1)(7)" index="158" status="LL" value="0" reducedCost="0"/>
  <variable name="xEAr&apos;(0,1,0,2,7)(3)(2)(7)" index="159" status="BS" value="-0" reducedCost="0"/>
 </variables>
</CPLEXSolution>
